H 
 1.0000000000000000
     2.2400000000000002    0.0000000000000000    0.0000000000000000
     0.0000000000000000    2.2400000000000002    0.0000000000000000
     0.0000000000000000    0.0000000000000000    2.2400000000000002
 H  
   2
Cartesian
  0.7500000000000001  1.1200000000000001  1.1200000000000001
  1.4900000000000002  1.1200000000000001  1.1200000000000001
